Route #1: 1 1 5 54 10 36 49 53 2 24 1 
Route #2: 1 48 42 22 44 1 
Route #3: 1 23 19 14 18 16 20 46 11 4 21 31 1 
Route #4: 1 28 6 34 55 15 27 37 26 39 1 
Route #5: 1 30 9 32 17 29 13 35 50 58 1 
Route #6: 1 45 56 43 33 3 1 
Route #7: 1 47 8 38 41 40 1 
Route #8: 1 51 12 57 59 1 
Route #9: 1 25 52 7 1 

Cost 1790.31
Time 0.4919


 * Another infos *

 Iterations: 60 Time: 0.4919 sec - 0.0082 min - 0.0001 horas
0.0000 h 0.0082 min
Problem dimension: 60
